(set-info :smt-lib-version 2.6)
(set-logic QF_SLIA)
(set-info :source |
Generated by: Denghang Hu
Generated on: 2023-04-14
Application: Evaluate string solvers
Target solver: Ostrich, Z3str3, CVC5
Description: The instance consists of:
(1) a regular membership predicate from the real world
(2) a regular membership predicate to sanitize danger letters in javascript such as <,>,&,",'
(3) a lower bound for string length
|)
(set-info :license "https://creativecommons.org/licenses/by/4.0/")
(set-info :category "industrial")
(set-info :status unknown)
        ;test regex GCAT[TGCA]{5,8}[TC]{7,10}G
(declare-const X String)
(assert (str.in_re X (re.++ (str.to_re "G") (re.++ (str.to_re "C") (re.++ (str.to_re "A") (re.++ (str.to_re "T") (re.++ ((_ re.loop 5 8) (re.union (str.to_re "T") (re.union (str.to_re "G") (re.union (str.to_re "C") (str.to_re "A"))))) (re.++ ((_ re.loop 7 10) (re.union (str.to_re "T") (str.to_re "C"))) (str.to_re "G")))))))))
; sanitize danger characters:  < > ' " &
(assert (not (str.in_re X (re.++ re.all (re.union (str.to_re "\u{3c}") (str.to_re "\u{3e}") (str.to_re "\u{27}") (str.to_re "\u{22}") (str.to_re "\u{26}")) re.all))))
(assert (< 20 (str.len X)))
(check-sat)
(exit)
